\ Model mip_queue_model
\ LP format - for model browsing. Use MPS format to capture full model detail.
Minimize
  q[0,0,0] + 2 q[0,0,1] + 3 q[0,0,2] + 4 q[0,0,3] + 5 q[0,0,4] + 6 q[0,0,5]
   + 7 q[0,0,6] + 8 q[0,0,7] + 9 q[0,0,8] + 10 q[0,0,9] + q[0,1,0]
   + 2 q[0,1,1] + 3 q[0,1,2] + 4 q[0,1,3] + 5 q[0,1,4] + 6 q[0,1,5]
   + 7 q[0,1,6] + 8 q[0,1,7] + 9 q[0,1,8] + 10 q[0,1,9] + q[1,0,0]
   + 2 q[1,0,1] + 3 q[1,0,2] + 4 q[1,0,3] + 5 q[1,0,4] + 6 q[1,0,5]
   + 7 q[1,0,6] + 8 q[1,0,7] + 9 q[1,0,8] + 10 q[1,0,9] + q[1,1,0]
   + 2 q[1,1,1] + 3 q[1,1,2] + 4 q[1,1,3] + 5 q[1,1,4] + 6 q[1,1,5]
   + 7 q[1,1,6] + 8 q[1,1,7] + 9 q[1,1,8] + 10 q[1,1,9] + q[2,0,0]
   + 2 q[2,0,1] + 3 q[2,0,2] + 4 q[2,0,3] + 5 q[2,0,4] + 6 q[2,0,5]
   + 7 q[2,0,6] + 8 q[2,0,7] + 9 q[2,0,8] + 10 q[2,0,9] + q[2,1,0]
   + 2 q[2,1,1] + 3 q[2,1,2] + 4 q[2,1,3] + 5 q[2,1,4] + 6 q[2,1,5]
   + 7 q[2,1,6] + 8 q[2,1,7] + 9 q[2,1,8] + 10 q[2,1,9] + q[3,0,0]
   + 2 q[3,0,1] + 3 q[3,0,2] + 4 q[3,0,3] + 5 q[3,0,4] + 6 q[3,0,5]
   + 7 q[3,0,6] + 8 q[3,0,7] + 9 q[3,0,8] + 10 q[3,0,9] + q[3,1,0]
   + 2 q[3,1,1] + 3 q[3,1,2] + 4 q[3,1,3] + 5 q[3,1,4] + 6 q[3,1,5]
   + 7 q[3,1,6] + 8 q[3,1,7] + 9 q[3,1,8] + 10 q[3,1,9] + q[4,0,0]
   + 2 q[4,0,1] + 3 q[4,0,2] + 4 q[4,0,3] + 5 q[4,0,4] + 6 q[4,0,5]
   + 7 q[4,0,6] + 8 q[4,0,7] + 9 q[4,0,8] + 10 q[4,0,9] + q[4,1,0]
   + 2 q[4,1,1] + 3 q[4,1,2] + 4 q[4,1,3] + 5 q[4,1,4] + 6 q[4,1,5]
   + 7 q[4,1,6] + 8 q[4,1,7] + 9 q[4,1,8] + 10 q[4,1,9]
Subject To
 R0: q[0,0,0] = 1
 R1: q[0,1,0] = 2
 R2: q[1,0,0] = 1
 R3: q[1,1,0] - c[0,0,0] - c[0,0,1] - c[0,0,2] - c[0,0,3] - c[0,0,4]
   - c[0,0,5] - c[0,0,6] - c[0,0,7] - c[0,0,8] - c[0,0,9] = 2
 R4: q[2,0,0] = 1
 R5: q[2,1,0] = 2
 R6: q[3,0,0] = 1
 R7: q[3,1,0] - c[2,0,0] - c[2,0,1] - c[2,0,2] - c[2,0,3] - c[2,0,4]
   - c[2,0,5] - c[2,0,6] - c[2,0,7] - c[2,0,8] - c[2,0,9] = 2
 R8: q[4,0,0] = 1
 R9: q[4,1,0] - c[3,0,0] - c[3,0,1] - c[3,0,2] - c[3,0,3] - c[3,0,4]
   - c[3,0,5] - c[3,0,6] - c[3,0,7] - c[3,0,8] - c[3,0,9] = 2
 R10: - q[0,0,0] + q[0,1,1] + c[0,0,0] = 0
 R11: - q[0,0,1] + q[0,1,2] + c[0,0,1] = 0
 R12: - q[0,0,2] + q[0,1,3] + c[0,0,2] = 0
 R13: - q[0,0,3] + q[0,1,4] + c[0,0,3] = 0
 R14: - q[0,0,4] + q[0,1,5] + c[0,0,4] = 0
 R15: - q[0,0,5] + q[0,1,6] + c[0,0,5] = 0
 R16: - q[0,0,6] + q[0,1,7] + c[0,0,6] = 0
 R17: - q[0,0,7] + q[0,1,8] + c[0,0,7] = 0
 R18: - q[0,0,8] + q[0,1,9] + c[0,0,8] = 0
 R19: - q[1,0,0] + q[1,1,1] + c[1,0,0] = 0
 R20: - q[1,0,1] + q[1,1,2] + c[1,0,1] = 0
 R21: - q[1,0,2] + q[1,1,3] + c[1,0,2] = 0
 R22: - q[1,0,3] + q[1,1,4] + c[1,0,3] = 0
 R23: - q[1,0,4] + q[1,1,5] + c[1,0,4] = 0
 R24: - q[1,0,5] + q[1,1,6] + c[1,0,5] = 0
 R25: - q[1,0,6] + q[1,1,7] + c[1,0,6] = 0
 R26: - q[1,0,7] + q[1,1,8] + c[1,0,7] = 0
 R27: - q[1,0,8] + q[1,1,9] + c[1,0,8] = 0
 R28: - q[2,0,0] + q[2,1,1] + c[2,0,0] = 0
 R29: - q[2,0,1] + q[2,1,2] + c[2,0,1] = 0
 R30: - q[2,0,2] + q[2,1,3] + c[2,0,2] = 0
 R31: - q[2,0,3] + q[2,1,4] + c[2,0,3] = 0
 R32: - q[2,0,4] + q[2,1,5] + c[2,0,4] = 0
 R33: - q[2,0,5] + q[2,1,6] + c[2,0,5] = 0
 R34: - q[2,0,6] + q[2,1,7] + c[2,0,6] = 0
 R35: - q[2,0,7] + q[2,1,8] + c[2,0,7] = 0
 R36: - q[2,0,8] + q[2,1,9] + c[2,0,8] = 0
 R37: - q[3,0,0] + q[3,1,1] + c[3,0,0] = 0
 R38: - q[3,0,1] + q[3,1,2] + c[3,0,1] = 0
 R39: - q[3,0,2] + q[3,1,3] + c[3,0,2] = 0
 R40: - q[3,0,3] + q[3,1,4] + c[3,0,3] = 0
 R41: - q[3,0,4] + q[3,1,5] + c[3,0,4] = 0
 R42: - q[3,0,5] + q[3,1,6] + c[3,0,5] = 0
 R43: - q[3,0,6] + q[3,1,7] + c[3,0,6] = 0
 R44: - q[3,0,7] + q[3,1,8] + c[3,0,7] = 0
 R45: - q[3,0,8] + q[3,1,9] + c[3,0,8] = 0
 R46: - q[4,0,0] + q[4,1,1] + c[4,0,0] = 0
 R47: - q[4,0,1] + q[4,1,2] + c[4,0,1] = 0
 R48: - q[4,0,2] + q[4,1,3] + c[4,0,2] = 0
 R49: - q[4,0,3] + q[4,1,4] + c[4,0,3] = 0
 R50: - q[4,0,4] + q[4,1,5] + c[4,0,4] = 0
 R51: - q[4,0,5] + q[4,1,6] + c[4,0,5] = 0
 R52: - q[4,0,6] + q[4,1,7] + c[4,0,6] = 0
 R53: - q[4,0,7] + q[4,1,8] + c[4,0,7] = 0
 R54: - q[4,0,8] + q[4,1,9] + c[4,0,8] = 0
 R55: - q[0,0,0] + c[0,0,0] <= 0
 R56: - q[0,0,1] + c[0,0,1] <= 0
 R57: - q[0,0,2] + c[0,0,2] <= 0
 R58: - q[0,0,3] + c[0,0,3] <= 0
 R59: - q[0,0,4] + c[0,0,4] <= 0
 R60: - q[0,0,5] + c[0,0,5] <= 0
 R61: - q[0,0,6] + c[0,0,6] <= 0
 R62: - q[0,0,7] + c[0,0,7] <= 0
 R63: - q[0,0,8] + c[0,0,8] <= 0
 R64: - q[0,0,9] + c[0,0,9] <= 0
 R65: - q[0,1,0] + c[0,1,0] <= 0
 R66: - q[0,1,1] + c[0,1,1] <= 0
 R67: - q[0,1,2] + c[0,1,2] <= 0
 R68: - q[0,1,3] + c[0,1,3] <= 0
 R69: - q[0,1,4] + c[0,1,4] <= 0
 R70: - q[0,1,5] + c[0,1,5] <= 0
 R71: - q[0,1,6] + c[0,1,6] <= 0
 R72: - q[0,1,7] + c[0,1,7] <= 0
 R73: - q[0,1,8] + c[0,1,8] <= 0
 R74: - q[0,1,9] + c[0,1,9] <= 0
 R75: - q[1,0,0] + c[1,0,0] <= 0
 R76: - q[1,0,1] + c[1,0,1] <= 0
 R77: - q[1,0,2] + c[1,0,2] <= 0
 R78: - q[1,0,3] + c[1,0,3] <= 0
 R79: - q[1,0,4] + c[1,0,4] <= 0
 R80: - q[1,0,5] + c[1,0,5] <= 0
 R81: - q[1,0,6] + c[1,0,6] <= 0
 R82: - q[1,0,7] + c[1,0,7] <= 0
 R83: - q[1,0,8] + c[1,0,8] <= 0
 R84: - q[1,0,9] + c[1,0,9] <= 0
 R85: - q[1,1,0] + c[1,1,0] <= 0
 R86: - q[1,1,1] + c[1,1,1] <= 0
 R87: - q[1,1,2] + c[1,1,2] <= 0
 R88: - q[1,1,3] + c[1,1,3] <= 0
 R89: - q[1,1,4] + c[1,1,4] <= 0
 R90: - q[1,1,5] + c[1,1,5] <= 0
 R91: - q[1,1,6] + c[1,1,6] <= 0
 R92: - q[1,1,7] + c[1,1,7] <= 0
 R93: - q[1,1,8] + c[1,1,8] <= 0
 R94: - q[1,1,9] + c[1,1,9] <= 0
 R95: - q[2,0,0] + c[2,0,0] <= 0
 R96: - q[2,0,1] + c[2,0,1] <= 0
 R97: - q[2,0,2] + c[2,0,2] <= 0
 R98: - q[2,0,3] + c[2,0,3] <= 0
 R99: - q[2,0,4] + c[2,0,4] <= 0
 R100: - q[2,0,5] + c[2,0,5] <= 0
 R101: - q[2,0,6] + c[2,0,6] <= 0
 R102: - q[2,0,7] + c[2,0,7] <= 0
 R103: - q[2,0,8] + c[2,0,8] <= 0
 R104: - q[2,0,9] + c[2,0,9] <= 0
 R105: - q[2,1,0] + c[2,1,0] <= 0
 R106: - q[2,1,1] + c[2,1,1] <= 0
 R107: - q[2,1,2] + c[2,1,2] <= 0
 R108: - q[2,1,3] + c[2,1,3] <= 0
 R109: - q[2,1,4] + c[2,1,4] <= 0
 R110: - q[2,1,5] + c[2,1,5] <= 0
 R111: - q[2,1,6] + c[2,1,6] <= 0
 R112: - q[2,1,7] + c[2,1,7] <= 0
 R113: - q[2,1,8] + c[2,1,8] <= 0
 R114: - q[2,1,9] + c[2,1,9] <= 0
 R115: - q[3,0,0] + c[3,0,0] <= 0
 R116: - q[3,0,1] + c[3,0,1] <= 0
 R117: - q[3,0,2] + c[3,0,2] <= 0
 R118: - q[3,0,3] + c[3,0,3] <= 0
 R119: - q[3,0,4] + c[3,0,4] <= 0
 R120: - q[3,0,5] + c[3,0,5] <= 0
 R121: - q[3,0,6] + c[3,0,6] <= 0
 R122: - q[3,0,7] + c[3,0,7] <= 0
 R123: - q[3,0,8] + c[3,0,8] <= 0
 R124: - q[3,0,9] + c[3,0,9] <= 0
 R125: - q[3,1,0] + c[3,1,0] <= 0
 R126: - q[3,1,1] + c[3,1,1] <= 0
 R127: - q[3,1,2] + c[3,1,2] <= 0
 R128: - q[3,1,3] + c[3,1,3] <= 0
 R129: - q[3,1,4] + c[3,1,4] <= 0
 R130: - q[3,1,5] + c[3,1,5] <= 0
 R131: - q[3,1,6] + c[3,1,6] <= 0
 R132: - q[3,1,7] + c[3,1,7] <= 0
 R133: - q[3,1,8] + c[3,1,8] <= 0
 R134: - q[3,1,9] + c[3,1,9] <= 0
 R135: - q[4,0,0] + c[4,0,0] <= 0
 R136: - q[4,0,1] + c[4,0,1] <= 0
 R137: - q[4,0,2] + c[4,0,2] <= 0
 R138: - q[4,0,3] + c[4,0,3] <= 0
 R139: - q[4,0,4] + c[4,0,4] <= 0
 R140: - q[4,0,5] + c[4,0,5] <= 0
 R141: - q[4,0,6] + c[4,0,6] <= 0
 R142: - q[4,0,7] + c[4,0,7] <= 0
 R143: - q[4,0,8] + c[4,0,8] <= 0
 R144: - q[4,0,9] + c[4,0,9] <= 0
 R145: - q[4,1,0] + c[4,1,0] <= 0
 R146: - q[4,1,1] + c[4,1,1] <= 0
 R147: - q[4,1,2] + c[4,1,2] <= 0
 R148: - q[4,1,3] + c[4,1,3] <= 0
 R149: - q[4,1,4] + c[4,1,4] <= 0
 R150: - q[4,1,5] + c[4,1,5] <= 0
 R151: - q[4,1,6] + c[4,1,6] <= 0
 R152: - q[4,1,7] + c[4,1,7] <= 0
 R153: - q[4,1,8] + c[4,1,8] <= 0
 R154: - q[4,1,9] + c[4,1,9] <= 0
 R155: c[0,0,0] + c[0,0,1] + c[0,0,2] + c[0,0,3] + c[0,0,4] + c[0,0,5]
   + c[0,0,6] + c[0,0,7] + c[0,0,8] + c[0,0,9] <= 2
 R156: c[0,1,0] + c[0,1,1] + c[0,1,2] + c[0,1,3] + c[0,1,4] + c[0,1,5]
   + c[0,1,6] + c[0,1,7] + c[0,1,8] + c[0,1,9] <= 2
 R157: c[1,0,0] + c[1,0,1] + c[1,0,2] + c[1,0,3] + c[1,0,4] + c[1,0,5]
   + c[1,0,6] + c[1,0,7] + c[1,0,8] + c[1,0,9] <= 2
 R158: c[1,1,0] + c[1,1,1] + c[1,1,2] + c[1,1,3] + c[1,1,4] + c[1,1,5]
   + c[1,1,6] + c[1,1,7] + c[1,1,8] + c[1,1,9] <= 2
 R159: c[2,0,0] + c[2,0,1] + c[2,0,2] + c[2,0,3] + c[2,0,4] + c[2,0,5]
   + c[2,0,6] + c[2,0,7] + c[2,0,8] + c[2,0,9] <= 2
 R160: c[2,1,0] + c[2,1,1] + c[2,1,2] + c[2,1,3] + c[2,1,4] + c[2,1,5]
   + c[2,1,6] + c[2,1,7] + c[2,1,8] + c[2,1,9] <= 2
 R161: c[3,0,0] + c[3,0,1] + c[3,0,2] + c[3,0,3] + c[3,0,4] + c[3,0,5]
   + c[3,0,6] + c[3,0,7] + c[3,0,8] + c[3,0,9] <= 2
 R162: c[3,1,0] + c[3,1,1] + c[3,1,2] + c[3,1,3] + c[3,1,4] + c[3,1,5]
   + c[3,1,6] + c[3,1,7] + c[3,1,8] + c[3,1,9] <= 2
 R163: c[4,0,0] + c[4,0,1] + c[4,0,2] + c[4,0,3] + c[4,0,4] + c[4,0,5]
   + c[4,0,6] + c[4,0,7] + c[4,0,8] + c[4,0,9] <= 2
 R164: c[4,1,0] + c[4,1,1] + c[4,1,2] + c[4,1,3] + c[4,1,4] + c[4,1,5]
   + c[4,1,6] + c[4,1,7] + c[4,1,8] + c[4,1,9] <= 2
 R165: q[0,0,1] = 3
 R166: q[0,0,2] = 0
 R167: q[0,0,3] = 0
 R168: q[0,0,4] = 0
 R169: q[0,0,5] = 0
 R170: q[0,0,6] = 0
 R171: q[0,0,7] = 0
 R172: q[0,0,8] = 0
 R173: q[0,0,9] = 0
 R174: q[1,0,1] = 3
 R175: q[1,0,2] = 0
 R176: q[1,0,3] = 0
 R177: q[1,0,4] = 0
 R178: q[1,0,5] = 0
 R179: q[1,0,6] = 0
 R180: q[1,0,7] = 0
 R181: q[1,0,8] = 0
 R182: q[1,0,9] = 0
 R183: q[2,0,1] = 3
 R184: q[2,0,2] = 0
 R185: q[2,0,3] = 0
 R186: q[2,0,4] = 0
 R187: q[2,0,5] = 0
 R188: q[2,0,6] = 0
 R189: q[2,0,7] = 0
 R190: q[2,0,8] = 0
 R191: q[2,0,9] = 0
 R192: q[3,0,1] = 3
 R193: q[3,0,2] = 0
 R194: q[3,0,3] = 0
 R195: q[3,0,4] = 0
 R196: q[3,0,5] = 0
 R197: q[3,0,6] = 0
 R198: q[3,0,7] = 0
 R199: q[3,0,8] = 0
 R200: q[3,0,9] = 0
 R201: q[4,0,1] = 3
 R202: q[4,0,2] = 0
 R203: q[4,0,3] = 0
 R204: q[4,0,4] = 0
 R205: q[4,0,5] = 0
 R206: q[4,0,6] = 0
 R207: q[4,0,7] = 0
 R208: q[4,0,8] = 0
 R209: q[4,0,9] = 0
Bounds
Generals
 c[0,0,0] c[0,0,1] c[0,0,2] c[0,0,3] c[0,0,4] c[0,0,5] c[0,0,6] c[0,0,7]
 c[0,0,8] c[0,0,9] c[0,1,0] c[0,1,1] c[0,1,2] c[0,1,3] c[0,1,4] c[0,1,5]
 c[0,1,6] c[0,1,7] c[0,1,8] c[0,1,9] c[1,0,0] c[1,0,1] c[1,0,2] c[1,0,3]
 c[1,0,4] c[1,0,5] c[1,0,6] c[1,0,7] c[1,0,8] c[1,0,9] c[1,1,0] c[1,1,1]
 c[1,1,2] c[1,1,3] c[1,1,4] c[1,1,5] c[1,1,6] c[1,1,7] c[1,1,8] c[1,1,9]
 c[2,0,0] c[2,0,1] c[2,0,2] c[2,0,3] c[2,0,4] c[2,0,5] c[2,0,6] c[2,0,7]
 c[2,0,8] c[2,0,9] c[2,1,0] c[2,1,1] c[2,1,2] c[2,1,3] c[2,1,4] c[2,1,5]
 c[2,1,6] c[2,1,7] c[2,1,8] c[2,1,9] c[3,0,0] c[3,0,1] c[3,0,2] c[3,0,3]
 c[3,0,4] c[3,0,5] c[3,0,6] c[3,0,7] c[3,0,8] c[3,0,9] c[3,1,0] c[3,1,1]
 c[3,1,2] c[3,1,3] c[3,1,4] c[3,1,5] c[3,1,6] c[3,1,7] c[3,1,8] c[3,1,9]
 c[4,0,0] c[4,0,1] c[4,0,2] c[4,0,3] c[4,0,4] c[4,0,5] c[4,0,6] c[4,0,7]
 c[4,0,8] c[4,0,9] c[4,1,0] c[4,1,1] c[4,1,2] c[4,1,3] c[4,1,4] c[4,1,5]
 c[4,1,6] c[4,1,7] c[4,1,8] c[4,1,9]
End
